
;this file is automatically generated: Thu Jan 02 16:54:47 GMT 2020

;declarations generated

(declare-fun oclExcludes ( Int Int) Bool)
(declare-fun Cardinality ( Int) Int)
(declare-fun obj_9d11d4dc_518a_4ff3_94c7_a22c56b118e7 ( Int) Int)
(declare-fun type_eb3aa9e9_84cd_439e_b32c_8846decc538f_Class37 ( Int) Bool)
(declare-fun oclSelect ( Int Bool) Int)
(declare-fun class37_Class37IntAttr4 ( Int) Int)
(declare-fun class37_Class37IntAttr3 ( Int) Int)
(declare-fun class37_Class37IntAttr2 ( Int) Int)
(declare-fun Enum0 ( Int) Int)
(declare-fun Enum1 ( Int) Int)
(declare-fun Enum2 ( Int) Int)
(declare-fun container_ ( Int) Int)
(declare-fun oclIncludes ( Int Int) Bool)
(declare-fun ObjAt ( Int Int) Int)

;formula(s) generated
(assert (! (forall ((c7_2 Int)(c7_1 Int)) (=> (and ( type_eb3aa9e9_84cd_439e_b32c_8846decc538f_Class37 c7_1 )  ( type_eb3aa9e9_84cd_439e_b32c_8846decc538f_Class37 c7_2 ) ) (or (> ( class37_Class37IntAttr4 ( obj_9d11d4dc_518a_4ff3_94c7_a22c56b118e7 c7_1 )  )  ( class37_Class37IntAttr2 ( obj_9d11d4dc_518a_4ff3_94c7_a22c56b118e7 c7_2 )  ) ) (and (forall ((v Int)) (=> ( type_eb3aa9e9_84cd_439e_b32c_8846decc538f_Class37 v )  (>= ( class37_Class37IntAttr3 ( obj_9d11d4dc_518a_4ff3_94c7_a22c56b118e7 v )  )  14))) (forall ((v Int)) (=> ( type_eb3aa9e9_84cd_439e_b32c_8846decc538f_Class37 v )  (<= ( class37_Class37IntAttr2 ( obj_9d11d4dc_518a_4ff3_94c7_a22c56b118e7 v )  )  2))))))):named l0))
(assert (! (forall ((v Int)) (=> ( type_eb3aa9e9_84cd_439e_b32c_8846decc538f_Class37 v )  (< ( class37_Class37IntAttr4 ( obj_9d11d4dc_518a_4ff3_94c7_a22c56b118e7 v )  )  1))):named l1))
(assert (exists ((o Int)) ( type_eb3aa9e9_84cd_439e_b32c_8846decc538f_Class37 ( obj_9d11d4dc_518a_4ff3_94c7_a22c56b118e7 o )  ) ))

 ;end of formula 